n_potions = 66;
alchemy = [2, 4, 1, 4, 1, 3, 1, 2, 3, 2, 3, 1, 1, 1, 1, 1, 5, 4, 1, 5, 4, 2, 2, 4, 1, 1, 3, 1, 2, 1, 4, 5, 1, 2, 1, 5, 2, 3, 1, 1, 1, 4, 3, 5, 5, 5, 2, 5, 2, 2, 5, 5, 1, 1, 4, 1, 1, 1, 4, 2, 5, 2, 4, 3, 2, 1];
n_days = 12;
min_potions = 5;
max_potions = 7;
min_alchemists = 5;
max_alchemists = 35;
prereqs = [|7,1
|8,6
|11,5
|11,6
|12,7
|13,8
|13,11
|14,3
|16,9
|17,11
|18,10
|18,11
|19,8
|20,9
|23,17
|23,18
|24,13
|24,19
|26,13
|26,23
|30,9
|33,27
|34,17
|35,9
|35,18
|37,30
|37,35
|38,33
|39,35
|41,9
|41,17
|41,18
|43,20
|44,16
|45,38
|47,42
|48,34
|48,35
|49,32
|53,47
|54,50
|55,43
|55,38
|56,51
|57,34
|58,28
|61,48
|62,31
|63,48
|65,59
|];
